
Gurobi 7.0.0 (win64, Python) logging started 11/10/16 13:16:24


Gurobi 7.0.0 (win64, Python) logging started 11/10/16 13:16:34


Gurobi 7.0.0 (win64, Python) logging started 11/10/16 13:17:46


Gurobi 7.0.0 (win64, Python) logging started 11/10/16 13:18:09


Gurobi 7.0.0 (win64, Python) logging started 11/10/16 13:18:13


Gurobi 7.0.0 (win64, Python) logging started 11/10/16 13:18:32


Gurobi 7.0.0 (win64, Python) logging started 11/10/16 13:18:41


Gurobi 7.0.0 (win64, Python) logging started 11/10/16 13:19:09


Gurobi 7.0.0 (win64, Python) logging started 11/10/16 13:19:28


Gurobi 7.0.0 (win64, Python) logging started 11/10/16 13:20:12


Gurobi 7.0.0 (win64, Python) logging started 11/10/16 13:20:38


Gurobi 7.0.0 (win64, Python) logging started 11/10/16 13:22:21


Gurobi 7.0.0 (win64, Python) logging started 11/10/16 13:27:21


Gurobi 7.0.0 (win64, Python) logging started 11/10/16 13:27:30


Gurobi 7.0.0 (win64, Python) logging started 11/10/16 13:28:16


Gurobi 7.0.0 (win64, Python) logging started 11/10/16 13:28:48


Gurobi 7.0.0 (win64, Python) logging started 11/10/16 13:29:16


Gurobi 7.0.0 (win64, Python) logging started 11/10/16 13:29:38


Gurobi 7.0.0 (win64, Python) logging started 11/10/16 13:30:19


Gurobi 7.0.0 (win64, Python) logging started 11/10/16 13:30:36


Gurobi 7.0.0 (win64, Python) logging started 11/10/16 13:30:58


Gurobi 7.0.0 (win64, Python) logging started 11/10/16 13:31:18


Gurobi 7.0.0 (win64, Python) logging started 11/10/16 13:31:24


Gurobi 7.0.0 (win64, Python) logging started 11/10/16 13:31:43


Gurobi 7.0.0 (win64, Python) logging started 11/10/16 13:32:12


Gurobi 7.0.0 (win64, Python) logging started 11/10/16 13:32:34


Gurobi 7.0.0 (win64, Python) logging started 11/10/16 13:32:43


Gurobi 7.0.0 (win64, Python) logging started 11/10/16 13:45:56

